{'code': [2, 5, 18, 18, 4, 10, 11, 9, 12, 13, 9, 0, 11, 1, 7, 1, 14, 4, 6, 17, 10, 19, 4, 8, 12, 3, 
3, 14, 11, 16, 16, 14, 0, 3, 2, 11, 0, 12, 15, 18, 2, 16, 3, 3, 8, 16, 18, 16, 15, 4, 16, 11, 9, 19,
 8, 9, 2, 0, 16, 16, 7, 15, 6, 17, 4, 11, 3, 19, 16, 15, 15, 8, 6, 12, 11, 12, 6, 1, 8, 7, 17, 5, 2,
 14, 6, 2, 13, 5, 15, 18, 1, 15, 6, 13, 10, 12, 8, 0, 1, 14, 1, 9, 9, 10, 17, 10, 16, 4, 15, 2, 4, 4
, 3, 15, 6, 7, 9, 1, 13, 18, 17, 14, 0, 5, 18, 19, 1, 17, 6, 2, 15, 7, 7, 9, 14, 19, 16, 18, 7, 8, 1
0, 17, 4, 3, 0, 12, 16, 11, 18, 11, 11, 8, 5, 19, 6, 9, 3, 19, 12, 4, 8, 7, 5, 5, 14, 1, 7, 17, 5, 1
9, 7, 15, 1, 17, 19, 1, 10, 16, 13, 13, 3, 15, 5, 7, 14, 10, 15, 14, 13, 0, 0, 19, 18, 13, 4, 2, 17,
 14, 9, 6, 8, 3, 6, 18, 10, 4, 12, 19, 17, 6, 5, 4, 15, 6, 12, 7, 7, 0, 11, 2, 5, 9, 8, 1, 9, 0, 2, 
18, 13, 0, 4, 19, 18, 1, 19, 12, 10, 13, 6, 14], 'route': None, 'mac': [[0, 7, 7, 0, 1, 8, 6, 0, 8, 
3, 1, 8], [7, 4, 1, 4, 2, 5, 6, 0, 6, 0, 6, 3, 6], [6, 4, 9, 0, 6, 3, 4, 0, 4, 2, 2], [9, 0, 0, 7, 3
, 7, 2, 4, 2, 6, 0], [7, 3, 4, 4, 2, 9, 6, 7, 3, 9, 8, 4, 5, 4], [1, 9, 0, 2, 4, 8, 7, 7, 1, 6, 0], 
[7, 7, 4, 3, 0, 1, 1, 4, 8, 0, 1, 6, 2, 9], [0, 4, 4, 6, 8, 9, 6, 1, 5, 8, 1, 2, 4], [7, 1, 0, 3, 4,
 6, 5, 8, 8, 1, 4], [3, 0, 2, 1, 8, 8, 4, 3, 1, 2, 5, 0], [8, 4, 5, 3, 3, 4, 2, 2, 0, 3], [4, 8, 3, 
8, 6, 6, 1, 7, 3, 4, 9], [1, 2, 1, 4, 1, 2, 1, 7, 4, 0, 6], [4, 0, 9, 1, 5, 0, 3, 3, 6, 2], [0, 3, 1
, 5, 4, 8, 1, 4, 3, 2, 1, 1], [7, 0, 2, 8, 7, 6, 6, 1, 0, 1, 3, 4, 0, 9], [5, 8, 6, 7, 4, 4, 0, 6, 1
, 1, 3, 2, 0], [5, 3, 3, 1, 2, 4, 8, 0, 9, 7, 0], [2, 1, 6, 9, 2, 0, 3, 1, 9, 4, 1, 6, 4], [6, 1, 6,
 2, 4, 0, 4, 0, 7, 8, 1, 2, 1]], 'wok': None}
